data;


param d:= 100;
param r:=5;
param p:=0.760000;
param M:=1000;
param U:=
         1         1       -1.955470e+00
         2         1        1.164079e+00
         3         1       -4.019872e-01
         4         1        8.030886e-01
         5         1       -2.518305e+00
         6         1       -5.897403e-01
         7         1        2.743610e-01
         8         1        1.507897e-01
         9         1       -2.105420e+00
        10         1        8.567502e-01
        11         1        7.804643e-01
        12         1        1.292604e-01
        13         1       -9.492491e-02
        14         1       -8.443082e-01
        15         1        8.278743e-02
        16         1       -7.968837e-01
        17         1       -3.240654e-01
        18         1        3.412593e-02
        19         1       -1.436402e+00
        20         1       -8.223222e-01
        21         1       -8.611645e-01
        22         1        7.569482e-02
        23         1        6.145427e-01
        24         1        1.337453e+00
        25         1        4.619464e-03
        26         1       -6.436323e-01
        27         1       -6.919030e-01
        28         1       -1.069197e+00
        29         1        1.093063e+00
        30         1        8.537581e-01
        31         1       -1.618322e+00
        32         1       -2.227741e+00
        33         1        1.061616e+00
        34         1       -1.438458e+00
        35         1       -1.138466e+00
        36         1       -1.539551e-01
        37         1        5.843925e-02
        38         1        1.131622e+00
        39         1       -1.579944e+00
        40         1        8.111372e-01
        41         1       -1.455099e+00
        42         1        7.813733e-01
        43         1        8.904050e-01
        44         1       -1.255056e+00
        45         1       -1.930736e-01
        46         1        4.775267e-01
        47         1        1.546259e+00
        48         1        2.262131e+00
        49         1       -4.040041e-01
        50         1       -3.800032e-01
        51         1        2.325231e-01
        52         1        5.562789e-01
        53         1        1.951080e+00
        54         1        2.369736e+00
        55         1        1.658375e+00
        56         1       -4.348822e-01
        57         1        2.295485e-01
        58         1       -1.473516e+00
        59         1        4.436561e-01
        60         1        7.955847e-01
        61         1        9.428861e-01
        62         1        3.355899e-01
        63         1        1.482319e+00
        64         1       -9.064648e-01
        65         1        1.937014e-01
        66         1        1.843775e+00
        67         1        5.343776e-01
        68         1       -6.708981e-02
        69         1       -7.565181e-01
        70         1        2.087606e-01
        71         1       -1.215857e+00
        72         1        8.134163e-01
        73         1        8.177719e-01
        74         1       -4.528203e-01
        75         1        1.207822e+00
        76         1        1.875095e+00
        77         1        7.498455e-02
        78         1       -1.368495e+00
        79         1        7.341388e-01
        80         1        1.230431e+00
        81         1       -1.346884e+00
        82         1        1.852001e-01
        83         1        2.729558e+00
        84         1        8.618076e-02
        85         1       -3.292718e-01
        86         1        1.033879e-01
        87         1       -1.612826e+00
        88         1       -5.906524e-01
        89         1        4.581785e-01
        90         1        7.290565e-03
        91         1       -1.418683e-01
        92         1       -1.153829e+00
        93         1       -2.918486e-01
        94         1        1.535913e+00
        95         1       -1.517062e+00
        96         1       -4.760043e-01
        97         1        1.054434e+00
        98         1        1.861119e-01
        99         1        4.730000e-01
       100         1       -1.470955e+00
         1         2       -2.778892e-01
         2         2        8.570540e-01
         3         2       -8.092214e-01
         4         2        1.115138e+00
         5         2       -1.433974e+00
         6         2        2.009283e+00
         7         2        1.061861e+00
         8         2       -1.532028e+00
         9         2        1.120768e+00
        10         2        2.232018e-01
        11         2        1.811442e+00
        12         2       -1.622703e+00
        13         2        2.376623e-01
        14         2       -3.017291e-01
        15         2        2.501422e-01
        16         2       -6.069811e-01
        17         2        1.161138e-01
        18         2       -6.668743e-01
        19         2       -1.034283e+00
        20         2        2.366781e-01
        21         2       -7.522774e-01
        22         2        8.554071e-01
        23         2        5.551887e-01
        24         2       -9.311003e-01
        25         2        2.852171e-01
        26         2       -2.004246e-01
        27         2        8.585488e-01
        28         2        3.710861e-01
        29         2        3.428879e-01
        30         2       -3.878591e-01
        31         2       -1.629663e+00
        32         2       -1.865171e-03
        33         2       -8.262416e-01
        34         2       -1.373680e+00
        35         2        7.124923e-01
        36         2        3.314030e-01
        37         2        1.891735e+00
        38         2       -1.029393e+00
        39         2       -6.261837e-01
        40         2       -6.314381e-01
        41         2       -6.388887e-01
        42         2       -5.751533e-01
        43         2       -2.664775e-01
        44         2        6.481705e-01
        45         2        8.254834e-02
        46         2       -5.436591e-01
        47         2        3.487101e-03
        48         2        6.032511e-01
        49         2       -1.051120e+00
        50         2       -1.238836e+00
        51         2        8.528085e-02
        52         2        3.929848e-02
        53         2        9.521269e-01
        54         2       -4.303670e-02
        55         2        1.750185e+00
        56         2       -1.800014e+00
        57         2       -7.533757e-01
        58         2       -1.658363e+00
        59         2       -1.733002e+00
        60         2        1.444894e-01
        61         2       -1.365456e-01
        62         2        6.069233e-01
        63         2       -3.735228e-01
        64         2       -1.950140e-01
        65         2       -1.525137e-01
        66         2        1.653368e+00
        67         2        7.747296e-01
        68         2        7.344694e-01
        69         2       -9.490336e-01
        70         2       -1.112501e+00
        71         2       -5.092291e-01
        72         2       -1.281421e+00
        73         2       -3.865565e+00
        74         2       -3.315294e-01
        75         2        2.239248e-01
        76         2       -7.246523e-01
        77         2       -3.213130e-02
        78         2       -2.001638e+00
        79         2        1.538714e+00
        80         2        1.053675e+00
        81         2       -3.557696e-01
        82         2       -1.568680e+00
        83         2        4.259212e-01
        84         2        2.397241e-01
        85         2       -3.949536e-01
        86         2       -4.917246e-01
        87         2        5.908474e-01
        88         2        1.788731e+00
        89         2        1.905904e-01
        90         2        1.330417e+00
        91         2       -1.029900e-01
        92         2        2.398741e-01
        93         2        1.213569e+00
        94         2        4.718235e-01
        95         2        1.516555e+00
        96         2       -9.575839e-01
        97         2       -6.573097e-01
        98         2       -3.001544e-01
        99         2       -3.327242e-01
       100         2        2.856247e-01
         1         3        1.079798e+00
         2         3       -2.807926e-01
         3         3        1.921204e-01
         4         3       -1.309839e+00
         5         3       -1.872227e-01
         6         3       -1.040366e+00
         7         3       -1.529545e+00
         8         3       -9.310444e-01
         9         3        6.611787e-01
        10         3       -1.246419e-01
        11         3        5.890456e-01
        12         3       -9.693985e-01
        13         3       -2.867786e-01
        14         3       -6.316612e-01
        15         3       -6.187115e-03
        16         3       -5.474670e-01
        17         3       -4.837062e-01
        18         3        1.218378e+00
        19         3       -9.035333e-02
        20         3       -1.270873e-01
        21         3        2.576521e-01
        22         3       -5.343726e-01
        23         3       -3.120410e-01
        24         3        2.306581e-01
        25         3        8.770449e-01
        26         3       -4.109726e-01
        27         3        1.106423e+00
        28         3       -1.130001e+00
        29         3       -8.507313e-01
        30         3       -1.510876e+00
        31         3       -8.590152e-01
        32         3        1.082892e+00
        33         3       -5.353184e-01
        34         3       -9.728844e-01
        35         3       -3.380978e-01
        36         3       -2.013639e-01
        37         3        2.136343e-01
        38         3        1.324753e-01
        39         3        3.660783e-01
        40         3        1.550179e+00
        41         3       -2.846005e-01
        42         3       -9.355830e-02
        43         3        1.706029e+00
        44         3       -3.550035e-01
        45         3       -1.264424e+00
        46         3       -3.515748e-01
        47         3        2.108351e-01
        48         3        8.547888e-01
        49         3       -9.333941e-01
        50         3       -6.887005e-01
        51         3       -5.151089e-01
        52         3       -3.294555e-01
        53         3       -5.654843e-01
        54         3        1.660508e+00
        55         3       -2.453758e-02
        56         3       -1.208442e+00
        57         3        2.812675e-01
        58         3        5.666640e-01
        59         3        1.135560e+00
        60         3       -1.874133e-01
        61         3        2.889956e-01
        62         3       -1.143567e+00
        63         3       -2.248082e+00
        64         3        3.649828e-01
        65         3       -2.166781e+00
        66         3       -1.895074e+00
        67         3       -1.441883e+00
        68         3        1.690367e+00
        69         3       -1.970526e-01
        70         3       -1.504754e+00
        71         3        6.356140e-01
        72         3        1.453913e-01
        73         3       -1.904546e+00
        74         3        2.024579e+00
        75         3       -5.572301e-01
        76         3       -9.321997e-01
        77         3        1.658786e-01
        78         3       -1.106586e+00
        79         3       -1.067269e+00
        80         3        1.203196e+00
        81         3       -1.294851e+00
        82         3        2.199671e-01
        83         3       -3.939239e-01
        84         3       -1.190827e+00
        85         3        2.732535e-01
        86         3       -6.478172e-01
        87         3        9.493901e-01
        88         3        7.992676e-01
        89         3       -1.898597e+00
        90         3        1.251817e+00
        91         3        5.136487e-01
        92         3        1.812935e-03
        93         3       -2.017645e-01
        94         3       -7.212296e-01
        95         3       -1.402232e+00
        96         3        8.823849e-01
        97         3       -3.305061e-01
        98         3       -4.012918e-02
        99         3       -5.570413e-01
       100         3       -7.261155e-02
         1         4       -1.553549e-01
         2         4       -4.397621e-01
         3         4        1.113933e+00
         4         4        1.016337e+00
         5         4        1.097505e+00
         6         4       -9.171279e-01
         7         4        5.731069e-01
         8         4        3.516988e-01
         9         4        8.914138e-01
        10         4        1.793490e+00
        11         4       -4.040798e-01
        12         4       -5.066777e-01
        13         4       -1.174372e+00
        14         4       -6.265240e-01
        15         4        1.383257e-01
        16         4        4.777265e-01
        17         4       -1.186805e+00
        18         4       -3.036430e-01
        19         4        2.992308e-01
        20         4       -1.730807e-01
        21         4        1.649156e+00
        22         4       -4.303986e-01
        23         4        1.166691e+00
        24         4        3.356057e-01
        25         4       -3.721869e-01
        26         4        1.406396e+00
        27         4       -1.264757e+00
        28         4       -2.234502e+00
        29         4       -1.077053e-01
        30         4       -5.403539e-01
        31         4        2.390409e-01
        32         4        1.408230e+00
        33         4       -6.282824e-03
        34         4       -3.892251e-01
        35         4        6.204496e-01
        36         4       -1.144724e+00
        37         4       -6.337704e-01
        38         4        1.026510e-01
        39         4       -2.899226e-02
        40         4       -3.753412e-01
        41         4        1.295112e+00
        42         4       -3.691931e-01
        43         4       -1.081751e+00
        44         4       -1.476171e+00
        45         4        1.427989e-01
        46         4       -1.588604e+00
        47         4       -2.897818e-01
        48         4        1.585187e+00
        49         4       -9.835500e-01
        50         4       -1.349166e+00
        51         4       -5.359619e-01
        52         4       -1.435096e+00
        53         4        1.401064e-01
        54         4       -1.303504e+00
        55         4       -4.497123e-01
        56         4       -9.739109e-01
        57         4       -5.528879e-02
        58         4       -9.325606e-01
        59         4        4.042206e-01
        60         4        1.246096e+00
        61         4        7.732903e-01
        62         4        1.524210e+00
        63         4        4.001197e-02
        64         4       -2.898156e-01
        65         4       -2.795768e-01
        66         4        7.102402e-02
        67         4        4.876924e-01
        68         4       -1.366326e+00
        69         4       -8.612107e-01
        70         4        2.375972e-01
        71         4       -9.804697e-01
        72         4       -4.423584e-01
        73         4       -1.216557e+00
        74         4        7.256845e-01
        75         4        2.140499e+00
        76         4       -2.018954e+00
        77         4       -8.668138e-01
        78         4       -1.221656e+00
        79         4       -4.923434e-01
        80         4       -9.745035e-01
        81         4       -6.993280e-02
        82         4       -8.995396e-02
        83         4       -5.775312e-01
        84         4       -9.233448e-01
        85         4        2.101102e+00
        86         4       -1.986929e-01
        87         4       -1.900905e-01
        88         4        4.464533e-01
        89         4       -7.990585e-01
        90         4        8.251150e-01
        91         4        1.637203e+00
        92         4        2.889510e-01
        93         4       -9.465604e-01
        94         4       -4.127216e-01
        95         4       -7.353508e-02
        96         4        2.105834e-01
        97         4        9.634488e-01
        98         4       -5.267448e-01
        99         4        8.726694e-01
       100         4        1.262866e+00
         1         5        1.053237e+00
         2         5        4.942655e-01
         3         5        6.937529e-01
         4         5       -7.705815e-01
         5         5        3.842641e-02
         6         5       -4.914723e-01
         7         5        9.085434e-02
         8         5        3.043936e-01
         9         5       -9.265501e-01
        10         5       -7.907495e-02
        11         5       -9.748796e-01
        12         5        8.722673e-02
        13         5       -2.267809e+00
        14         5        1.593112e+00
        15         5        1.466946e+00
        16         5       -7.264403e-01
        17         5        4.307629e-01
        18         5        1.540122e+00
        19         5        4.382764e-01
        20         5        2.862904e-01
        21         5        5.568292e-01
        22         5        8.155516e-01
        23         5        3.140555e-01
        24         5       -9.559069e-01
        25         5        1.356706e+00
        26         5       -2.206739e-01
        27         5        1.259793e+00
        28         5        1.014667e+00
        29         5        6.133806e-01
        30         5       -8.362377e-01
        31         5       -9.577711e-01
        32         5        1.482234e+00
        33         5        1.091898e+00
        34         5       -5.927040e-01
        35         5       -1.915258e-01
        36         5        6.965033e-01
        37         5       -3.012487e-01
        38         5       -2.987337e-01
        39         5       -1.919127e-01
        40         5        1.723129e+00
        41         5       -2.065932e+00
        42         5        1.462829e+00
        43         5       -6.067835e-01
        44         5        1.615621e+00
        45         5       -9.064249e-01
        46         5       -8.226721e-01
        47         5        1.189572e+00
        48         5        9.989414e-01
        49         5       -7.700506e-01
        50         5       -3.307250e-02
        51         5       -1.879866e-01
        52         5        1.202785e+00
        53         5       -4.454265e-01
        54         5       -9.324718e-01
        55         5        1.055053e+00
        56         5        3.566329e-01
        57         5       -3.245972e-01
        58         5        1.746569e+00
        59         5        7.679980e-01
        60         5        2.007340e+00
        61         5        1.095626e+00
        62         5        7.431981e-01
        63         5        3.179664e-01
        64         5       -7.434446e-01
        65         5        1.268624e-01
        66         5       -6.675052e-01
        67         5       -2.107991e+00
        68         5       -3.809943e-01
        69         5       -5.010732e-01
        70         5        3.762932e-01
        71         5       -1.333321e+00
        72         5       -1.898964e+00
        73         5       -3.313317e-01
        74         5       -1.190473e-01
        75         5        1.566692e+00
        76         5        8.405058e-01
        77         5       -2.496543e-01
        78         5       -4.649783e-01
        79         5       -1.307051e+00
        80         5       -1.568506e+00
        81         5        1.718911e-02
        82         5        7.566394e-01
        83         5       -2.327728e+00
        84         5       -7.091339e-01
        85         5       -9.995417e-01
        86         5       -6.677252e-01
        87         5       -1.078709e+00
        88         5        7.815415e-01
        89         5       -1.800579e+00
        90         5       -1.816009e+00
        91         5       -2.047745e-01
        92         5        3.992924e-02
        93         5       -3.430082e-01
        94         5        5.357362e-01
        95         5       -1.346608e+00
        96         5       -9.390963e-01
        97         5        4.804417e-01
        98         5       -6.242380e-01
        99         5       -1.270687e+00
       100         5       -2.147823e-01
;

param theta:=
    1        9.624151e-01
    2       -1.585706e+00
    3       -2.614862e+00
    4        8.758622e-02
    5        1.068192e+00
;
param X_true:=
    1       -3.169607e+00
    2        8.857818e-01
    3        1.256758e+00
    4        1.685459e+00
    5        4.823306e-01
    6       -1.565939e+00
    7        2.728244e+00
    8        5.308187e+00
    9       -6.467718e+00
   10        8.151016e-01
   11       -4.760070e+00
   12        5.286486e+00
   13       -2.086956e+00
   14        3.056882e+00
   15        1.331780e+00
   16        8.230206e-01
   17        1.048708e+00
   18       -6.153229e-01
   19        8.810091e-01
   20       -7.016317e-01
   21        6.150961e-01
   22        9.034835e-01
   23        8.361862e-01
   24        1.067813e+00
   25       -1.362805e+00
   26        7.217256e-01
   27       -3.457017e+00
   28        2.134334e+00
   29        3.415595e+00
   30        4.410696e+00
   31        2.276955e+00
   32       -3.126525e+00
   33        4.743343e+00
   34        2.880118e+00
   35       -1.391674e+00
   36        4.594438e-01
   37       -3.732668e+00
   38        1.933284e+00
   39       -1.913143e+00
   40       -3.367569e-01
   41       -1.740986e+00
   42        3.460366e+00
   43       -3.981394e+00
   44        2.038782e-01
   45        1.927073e+00
   46        1.324194e+00
   47        1.985226e+00
   48       -6.278719e-02
   49        2.691620e+00
   50        3.159616e+00
   51        1.231056e+00
   52        2.495510e+00
   53        1.608913e+00
   54       -3.121342e+00
   55       -1.873424e-01
   56        5.834549e+00
   57        2.977893e-01
   58        1.503932e+00
   59        1.000122e+00
   60        3.145845e+00
   61        1.845113e+00
   62        3.274504e+00
   63        8.199269e+00
   64       -2.450119e+00
   65        6.220590e+00
   66        3.306722e+00
   67        9.874645e-01
   68       -6.052051e+00
   69        7.160875e-01
   70        6.466569e+00
   71       -3.599991e+00
   72        5.263246e-01
   73        1.137948e+01
   74       -5.272513e+00
   75        4.079950e+00
   76        5.996687e+00
   77       -6.361496e-01
   78        4.281121e+00
   79       -5.243903e-01
   80       -5.327754e+00
   81        2.552856e+00
   82        2.914272e+00
   83        4.437745e-01
   84        2.141159e+00
   85       -1.346707e+00
   86        1.696173e+00
   87       -6.036166e+00
   88       -4.561917e+00
   89        3.066401e+00
   90       -7.482634e+00
   91       -1.447224e+00
   92       -1.391404e+00
   93       -2.196354e+00
   94        3.243184e+00
   95       -1.665661e+00
   96       -2.273607e+00
   97        3.541674e+00
   98        1.524302e-02
   99        9.912201e-01
  100       -1.791594e+00
;
param X:=
    1       -1.574385e+00
    2       -2.302567e-01
    3        5.004269e-01
    4        1.685459e+00
    5        4.823306e-01
    6       -4.495768e-01
    7       -2.305556e-01
    8        5.308187e+00
    9       -2.270835e-01
   10       -1.067120e-01
   11       -1.162391e-01
   12        6.194124e-01
   13       -9.775441e-01
   14        1.158754e+00
   15        1.331780e+00
   16       -1.148445e+00
   17       -1.253841e+00
   18       -6.153229e-01
   19        8.810091e-01
   20       -7.981994e-02
   21       -1.416356e+00
   22        5.966937e-01
   23        8.361862e-01
   24       -8.148766e-01
   25       -2.317667e+00
   26       -5.510758e-01
   27        7.352815e-01
   28        2.134334e+00
   29       -1.742127e-01
   30        5.949168e-01
   31        2.037628e+00
   32        5.299337e-01
   33        7.403233e-01
   34        4.197886e-01
   35       -9.085686e-01
   36        6.448224e-01
   37       -1.242860e+00
   38       -1.031071e+00
   39       -1.530316e-01
   40       -3.367569e-01
   41        2.354680e+00
   42        3.460366e+00
   43       -1.034084e+00
   44        2.038782e-01
   45       -2.029303e+00
   46        5.484239e-02
   47       -1.200341e+00
   48       -3.537760e-01
   49        2.733761e-01
   50       -1.259864e+00
   51        1.231056e+00
   52        6.901366e-01
   53        1.608913e+00
   54       -7.840787e-01
   55       -4.588508e-01
   56        4.206905e-01
   57        2.977893e-01
   58       -1.322309e+00
   59        7.642057e-01
   60        5.004799e-01
   61        1.685343e+00
   62        6.284266e-01
   63       -5.173665e-01
   64       -2.450119e+00
   65       -4.058249e-01
   66        8.795089e-01
   67       -5.470100e-01
   68       -1.215295e+00
   69        7.160875e-01
   70        3.918024e-01
   71       -1.279344e-01
   72        1.165850e+00
   73        5.210956e-01
   74       -2.185294e+00
   75        1.776050e+00
   76       -5.288445e-01
   77       -3.252742e-01
   78        4.281121e+00
   79       -5.243903e-01
   80       -5.327754e+00
   81        2.552856e+00
   82       -1.385422e+00
   83        7.758868e-01
   84       -8.672433e-01
   85       -1.346707e+00
   86        1.364188e+00
   87        1.946321e+00
   88       -4.561917e+00
   89       -1.112776e+00
   90       -2.249971e+00
   91       -1.610552e-01
   92       -1.391404e+00
   93       -1.014002e-01
   94       -1.161784e+00
   95       -1.665661e+00
   96        6.874274e-01
   97        2.518138e+00
   98        7.809137e-01
   99       -3.430555e-01
  100        2.138142e-02
;
param outliervec:=
    1    1
    2    1
    3    1
    4    0
    5    0
    6    1
    7    1
    8    0
    9    1
   10    1
   11    1
   12    1
   13    1
   14    1
   15    0
   16    1
   17    1
   18    0
   19    0
   20    1
   21    1
   22    1
   23    0
   24    1
   25    1
   26    1
   27    1
   28    0
   29    1
   30    1
   31    1
   32    1
   33    1
   34    1
   35    1
   36    1
   37    1
   38    1
   39    1
   40    0
   41    1
   42    0
   43    1
   44    0
   45    1
   46    1
   47    1
   48    1
   49    1
   50    1
   51    0
   52    1
   53    0
   54    1
   55    1
   56    1
   57    0
   58    1
   59    1
   60    1
   61    1
   62    1
   63    1
   64    0
   65    1
   66    1
   67    1
   68    1
   69    0
   70    1
   71    1
   72    1
   73    1
   74    1
   75    1
   76    1
   77    1
   78    0
   79    0
   80    0
   81    0
   82    1
   83    1
   84    1
   85    0
   86    1
   87    1
   88    0
   89    1
   90    1
   91    1
   92    0
   93    1
   94    1
   95    0
   96    1
   97    1
   98    1
   99    1
  100    1
;